c FILE /home/rafael/Documents/HappySet/MIHS/inputs/happygen/output/graph_scale_free_k4_p0.4_v100_20241127_083829.txt
c SOURCE This is a scale-free graph formed for the happy graph colouring problem.
c DESCRIPTION It was generated using the problem generator of Rhyd Lewis
c
c GRAPH STATS
c Seed                             = -1285180377
c Number of Nodes                  = 100
c Number of colours k              = 4
c Number of pre-assignments        = 40
c Number of links per new node     = 5
c Density                          = 0.0979798
c 
c The degrees of nodes 1 to 100, respectively, are as follows 
c [36, 31, 31, 28, 27, 25, 25, 24, 23, 21, 21, 19, 17, 16, 16, 14, 14, 13, 13, 13, 13, 12, 11, 10, 10, 10, 
c  10, 10, 10, 10, 9, 9, 9, 9, 9, 9, 8, 8, 8, 8, 7, 7, 7, 7, 7, 7, 7, 7, 7, 7, 7, 
c  7, 7, 7, 7, 6, 6, 6, 6, 6, 6, 6, 6, 6, 6, 6, 6, 6, 6, 6, 6, 6, 6, 6, 6, 6, 
c  5, 5, 5, 5, 5, 5, 5, 5, 5, 5, 5, 5, 5, 5, 5, 5, 5, 5, 5, 5, 5, 5, 5, 5] 
c  
p edge 100 485 4
e 1 2
e 1 5
e 1 6
e 1 7
e 1 8
e 1 9
e 1 11
e 1 12
e 1 14
e 1 15
e 1 17
e 1 18
e 1 21
e 1 22
e 1 23
e 1 24
e 1 31
e 1 36
e 1 41
e 1 48
e 1 49
e 1 50
e 1 54
e 1 55
e 1 56
e 1 60
e 1 63
e 1 68
e 1 69
e 1 73
e 1 78
e 1 82
e 1 92
e 1 95
e 1 99
e 1 100
e 2 3
e 2 4
e 2 5
e 2 6
e 2 7
e 2 8
e 2 9
e 2 10
e 2 11
e 2 17
e 2 19
e 2 21
e 2 23
e 2 24
e 2 25
e 2 26
e 2 29
e 2 33
e 2 38
e 2 43
e 2 55
e 2 56
e 2 61
e 2 62
e 2 70
e 2 75
e 2 81
e 2 82
e 2 83
e 2 86
e 3 4
e 3 5
e 3 6
e 3 7
e 3 9
e 3 10
e 3 12
e 3 16
e 3 17
e 3 21
e 3 27
e 3 32
e 3 34
e 3 37
e 3 40
e 3 42
e 3 47
e 3 48
e 3 53
e 3 60
e 3 62
e 3 64
e 3 67
e 3 72
e 3 76
e 3 77
e 3 78
e 3 80
e 3 83
e 3 100
e 4 5
e 4 7
e 4 8
e 4 9
e 4 12
e 4 15
e 4 18
e 4 19
e 4 22
e 4 23
e 4 27
e 4 30
e 4 33
e 4 36
e 4 37
e 4 39
e 4 40
e 4 42
e 4 48
e 4 49
e 4 58
e 4 74
e 4 87
e 4 88
e 4 97
e 4 98
e 5 6
e 5 7
e 5 9
e 5 10
e 5 12
e 5 16
e 5 18
e 5 24
e 5 34
e 5 38
e 5 39
e 5 43
e 5 44
e 5 45
e 5 46
e 5 47
e 5 56
e 5 58
e 5 67
e 5 85
e 5 87
e 5 89
e 5 94
e 6 7
e 6 9
e 6 10
e 6 14
e 6 21
e 6 23
e 6 28
e 6 32
e 6 37
e 6 38
e 6 40
e 6 45
e 6 48
e 6 52
e 6 54
e 6 57
e 6 59
e 6 60
e 6 93
e 6 94
e 6 95
e 7 8
e 7 9
e 7 10
e 7 11
e 7 15
e 7 17
e 7 29
e 7 33
e 7 40
e 7 44
e 7 50
e 7 56
e 7 57
e 7 66
e 7 71
e 7 78
e 7 84
e 7 88
e 7 92
e 8 9
e 8 18
e 8 19
e 8 20
e 8 22
e 8 28
e 8 30
e 8 31
e 8 38
e 8 41
e 8 44
e 8 59
e 8 60
e 8 61
e 8 64
e 8 74
e 8 75
e 8 79
e 8 92
e 8 97
e 9 12
e 9 14
e 9 16
e 9 18
e 9 20
e 9 23
e 9 27
e 9 29
e 9 35
e 9 39
e 9 50
e 9 56
e 9 79
e 9 85
e 9 100
e 10 11
e 10 16
e 10 36
e 10 37
e 10 53
e 10 59
e 10 62
e 10 64
e 10 66
e 10 70
e 10 73
e 10 82
e 10 83
e 10 86
e 10 91
e 10 98
e 11 12
e 11 13
e 11 25
e 11 26
e 11 29
e 11 31
e 11 32
e 11 44
e 11 45
e 11 49
e 11 59
e 11 61
e 11 65
e 11 69
e 11 77
e 11 99
e 11 100
e 12 13
e 12 14
e 12 15
e 12 41
e 12 46
e 12 49
e 12 51
e 12 52
e 12 54
e 12 62
e 12 87
e 12 95
e 12 98
e 13 14
e 13 15
e 13 30
e 13 33
e 13 36
e 13 42
e 13 43
e 13 44
e 13 47
e 13 51
e 13 63
e 13 73
e 13 75
e 13 82
e 13 85
e 14 15
e 14 20
e 14 23
e 14 24
e 14 25
e 14 33
e 14 34
e 14 65
e 14 76
e 14 90
e 14 91
e 15 17
e 15 28
e 15 30
e 15 35
e 15 42
e 15 45
e 15 59
e 15 65
e 15 70
e 15 98
e 16 30
e 16 31
e 16 33
e 16 37
e 16 38
e 16 39
e 16 52
e 16 57
e 16 71
e 16 99
e 17 19
e 17 20
e 17 31
e 17 41
e 17 46
e 17 58
e 17 76
e 17 89
e 17 96
e 18 32
e 18 34
e 18 57
e 18 63
e 18 69
e 18 72
e 18 75
e 18 90
e 19 26
e 19 37
e 19 64
e 19 73
e 19 77
e 19 78
e 19 82
e 19 86
e 19 87
e 20 25
e 20 31
e 20 32
e 20 50
e 20 68
e 20 75
e 20 93
e 20 94
e 20 100
e 21 24
e 21 35
e 21 58
e 21 64
e 21 66
e 21 67
e 21 70
e 21 81
e 21 92
e 22 25
e 22 26
e 22 52
e 22 53
e 22 54
e 22 66
e 22 71
e 22 76
e 22 90
e 23 35
e 23 37
e 23 42
e 23 46
e 23 81
e 24 31
e 24 35
e 24 41
e 24 54
e 24 92
e 25 27
e 25 49
e 25 53
e 25 56
e 25 98
e 26 31
e 26 43
e 26 77
e 26 79
e 26 80
e 26 99
e 27 28
e 27 32
e 27 55
e 27 79
e 27 85
e 27 97
e 28 33
e 28 39
e 28 47
e 28 60
e 28 62
e 28 74
e 29 32
e 29 36
e 29 51
e 29 93
e 29 94
e 29 96
e 30 50
e 30 51
e 30 76
e 30 84
e 30 86
e 31 88
e 32 34
e 32 47
e 33 48
e 33 68
e 34 58
e 34 65
e 34 71
e 34 77
e 35 43
e 35 61
e 35 72
e 35 79
e 36 53
e 36 80
e 36 88
e 36 93
e 37 46
e 38 43
e 38 63
e 38 91
e 39 74
e 39 84
e 39 95
e 40 53
e 40 72
e 40 86
e 40 96
e 41 57
e 41 78
e 42 51
e 42 68
e 43 63
e 44 45
e 44 66
e 45 81
e 45 97
e 46 70
e 46 83
e 47 71
e 47 80
e 48 61
e 48 67
e 49 68
e 49 80
e 50 81
e 50 83
e 51 55
e 51 90
e 52 59
e 52 69
e 52 85
e 53 90
e 54 74
e 54 93
e 55 66
e 55 73
e 55 84
e 57 99
e 58 67
e 60 69
e 61 65
e 62 87
e 63 89
e 64 84
e 65 89
e 67 88
e 68 97
e 69 96
e 70 72
e 71 91
e 72 96
e 73 91
e 74 94
e 75 89
e 76 95
n 12 2
n 15 2
n 16 3
n 19 2
n 20 1
n 21 2
n 22 4
n 23 2
n 33 3
n 38 3
n 42 2
n 45 2
n 46 2
n 47 4
n 50 1
n 53 4
n 56 4
n 57 3
n 58 2
n 59 2
n 60 3
n 61 3
n 63 3
n 64 2
n 67 2
n 69 3
n 70 2
n 73 2
n 75 1
n 78 2
n 79 3
n 80 4
n 82 2
n 84 2
n 86 2
n 92 2
n 93 1
n 96 3
n 97 2
n 98 2
